c THIS FORMULA IS GENERATED BY CNF
c 
c atomics
c X_PI <= 80.61_2_p:1
c X_GS <= 57.55_2_n:2
c C_1_1:3
c X_PI <= 42.09_2_n:4
c X_GS <= 37.89_1_p:5
c X_PI <= 70.62_2_p:6
c X_PI <= 70.62_2_s:7
c X_PI <= 80.61_2_s:8
c X_GS <= 37.89_2_s:9
c X_PI <= 70.62_1_n:10
c C_2_2:11
c X_PI <= 42.09_2_s:12
c X_GS <= 37.89_1_s:13
c X_PI <= 80.61_2_n:14
c X_PI <= 42.09_1_p:15
c X_GS <= 57.55_2_p:16
c X_GS <= 37.89_2_p:17
c X_PI <= 70.62_1_s:18
c X_GS <= 57.55_2_s:19
c X_PI <= 42.09_2_p:20
c C_2_1:21
c X_PI <= 70.62_2_n:22
c C_1_2:23
c X_GS <= 57.55_1_n:24
c X_PI <= 42.09_1_n:25
c X_GS <= 37.89_1_n:26
c X_GS <= 57.55_1_s:27
c X_PI <= 42.09_1_s:28
c X_GS <= 37.89_2_n:29
c X_PI <= 80.61_1_p:30
c X_PI <= 80.61_1_n:31
c X_PI <= 70.62_1_p:32
c X_GS <= 57.55_1_p:33
c X_PI <= 80.61_1_s:34
c end atomics
p cnf 34 295
15 -15 -15 0
15 -15 -25 0
15 -15 28 0
15 25 -15 0
15 25 -25 0
15 25 28 0
15 -28 -15 0
15 -28 -25 0
15 -28 28 0
-25 -15 -15 0
-25 -15 -25 0
-25 -15 28 0
-25 25 -15 0
-25 25 -25 0
-25 25 28 0
-25 -28 -15 0
-25 -28 -25 0
-25 -28 28 0
-28 -15 -15 0
-28 -15 -25 0
-28 -15 28 0
-28 25 -15 0
-28 25 -25 0
-28 25 28 0
-28 -28 -15 0
-28 -28 -25 0
-28 -28 28 0
32 -32 -32 0
32 -32 -10 0
32 -32 18 0
32 10 -32 0
32 10 -10 0
32 10 18 0
32 -18 -32 0
32 -18 -10 0
32 -18 18 0
-10 -32 -32 0
-10 -32 -10 0
-10 -32 18 0
-10 10 -32 0
-10 10 -10 0
-10 10 18 0
-10 -18 -32 0
-10 -18 -10 0
-10 -18 18 0
-18 -32 -32 0
-18 -32 -10 0
-18 -32 18 0
-18 10 -32 0
-18 10 -10 0
-18 10 18 0
-18 -18 -32 0
-18 -18 -10 0
-18 -18 18 0
30 -30 -30 0
30 -30 -31 0
30 -30 34 0
30 31 -30 0
30 31 -31 0
30 31 34 0
30 -34 -30 0
30 -34 -31 0
30 -34 34 0
-31 -30 -30 0
-31 -30 -31 0
-31 -30 34 0
-31 31 -30 0
-31 31 -31 0
-31 31 34 0
-31 -34 -30 0
-31 -34 -31 0
-31 -34 34 0
-34 -30 -30 0
-34 -30 -31 0
-34 -30 34 0
-34 31 -30 0
-34 31 -31 0
-34 31 34 0
-34 -34 -30 0
-34 -34 -31 0
-34 -34 34 0
5 -5 -5 0
5 -5 -26 0
5 -5 13 0
5 26 -5 0
5 26 -26 0
5 26 13 0
5 -13 -5 0
5 -13 -26 0
5 -13 13 0
-26 -5 -5 0
-26 -5 -26 0
-26 -5 13 0
-26 26 -5 0
-26 26 -26 0
-26 26 13 0
-26 -13 -5 0
-26 -13 -26 0
-26 -13 13 0
-13 -5 -5 0
-13 -5 -26 0
-13 -5 13 0
-13 26 -5 0
-13 26 -26 0
-13 26 13 0
-13 -13 -5 0
-13 -13 -26 0
-13 -13 13 0
33 -33 -33 0
33 -33 -24 0
33 -33 27 0
33 24 -33 0
33 24 -24 0
33 24 27 0
33 -27 -33 0
33 -27 -24 0
33 -27 27 0
-24 -33 -33 0
-24 -33 -24 0
-24 -33 27 0
-24 24 -33 0
-24 24 -24 0
-24 24 27 0
-24 -27 -33 0
-24 -27 -24 0
-24 -27 27 0
-27 -33 -33 0
-27 -33 -24 0
-27 -33 27 0
-27 24 -33 0
-27 24 -24 0
-27 24 27 0
-27 -27 -33 0
-27 -27 -24 0
-27 -27 27 0
20 -20 -20 0
20 -20 -4 0
20 -20 12 0
20 4 -20 0
20 4 -4 0
20 4 12 0
20 -12 -20 0
20 -12 -4 0
20 -12 12 0
-4 -20 -20 0
-4 -20 -4 0
-4 -20 12 0
-4 4 -20 0
-4 4 -4 0
-4 4 12 0
-4 -12 -20 0
-4 -12 -4 0
-4 -12 12 0
-12 -20 -20 0
-12 -20 -4 0
-12 -20 12 0
-12 4 -20 0
-12 4 -4 0
-12 4 12 0
-12 -12 -20 0
-12 -12 -4 0
-12 -12 12 0
6 -6 -6 0
6 -6 -22 0
6 -6 7 0
6 22 -6 0
6 22 -22 0
6 22 7 0
6 -7 -6 0
6 -7 -22 0
6 -7 7 0
-22 -6 -6 0
-22 -6 -22 0
-22 -6 7 0
-22 22 -6 0
-22 22 -22 0
-22 22 7 0
-22 -7 -6 0
-22 -7 -22 0
-22 -7 7 0
-7 -6 -6 0
-7 -6 -22 0
-7 -6 7 0
-7 22 -6 0
-7 22 -22 0
-7 22 7 0
-7 -7 -6 0
-7 -7 -22 0
-7 -7 7 0
1 -1 -1 0
1 -1 -14 0
1 -1 8 0
1 14 -1 0
1 14 -14 0
1 14 8 0
1 -8 -1 0
1 -8 -14 0
1 -8 8 0
-14 -1 -1 0
-14 -1 -14 0
-14 -1 8 0
-14 14 -1 0
-14 14 -14 0
-14 14 8 0
-14 -8 -1 0
-14 -8 -14 0
-14 -8 8 0
-8 -1 -1 0
-8 -1 -14 0
-8 -1 8 0
-8 14 -1 0
-8 14 -14 0
-8 14 8 0
-8 -8 -1 0
-8 -8 -14 0
-8 -8 8 0
17 -17 -17 0
17 -17 -29 0
17 -17 9 0
17 29 -17 0
17 29 -29 0
17 29 9 0
17 -9 -17 0
17 -9 -29 0
17 -9 9 0
-29 -17 -17 0
-29 -17 -29 0
-29 -17 9 0
-29 29 -17 0
-29 29 -29 0
-29 29 9 0
-29 -9 -17 0
-29 -9 -29 0
-29 -9 9 0
-9 -17 -17 0
-9 -17 -29 0
-9 -17 9 0
-9 29 -17 0
-9 29 -29 0
-9 29 9 0
-9 -9 -17 0
-9 -9 -29 0
-9 -9 9 0
16 -16 -16 0
16 -16 -2 0
16 -16 19 0
16 2 -16 0
16 2 -2 0
16 2 19 0
16 -19 -16 0
16 -19 -2 0
16 -19 19 0
-2 -16 -16 0
-2 -16 -2 0
-2 -16 19 0
-2 2 -16 0
-2 2 -2 0
-2 2 19 0
-2 -19 -16 0
-2 -19 -2 0
-2 -19 19 0
-19 -16 -16 0
-19 -16 -2 0
-19 -16 19 0
-19 2 -16 0
-19 2 -2 0
-19 2 19 0
-19 -19 -16 0
-19 -19 -2 0
-19 -19 19 0
-28 -18 -34 -13 -27 0
-12 -7 -8 -9 -19 0
15 32 30 26 24 0
20 6 1 29 2 0
-15 -3 0
-32 -3 0
-31 -3 0
-5 -3 0
-24 -3 0
-20 -21 0
-6 -21 0
-14 -21 0
-17 -21 0
-2 -21 0
-15 -23 0
-32 -23 0
-30 -23 0
-5 -23 0
-33 -23 0
-20 -11 0
-6 -11 0
-1 -11 0
-17 -11 0
-16 -11 0
3 21 0
23 11 0
